s td 20 4 20
b 1 1 2
b 2 2 4
b 3 3 7
b 4 4 9
b 5 15 19
b 6 4 11 19
b 7 8 16 19
b 8 7 12 16
b 9 5 7 11 16
b 10 7 11 16
b 11 11 16 19
b 12 16 19
b 13 19
b 14 6
b 15 10
b 16 13
b 17 14
b 18 17
b 19 18
b 20 20
1 2
1 14
1 15
1 16
1 17
1 18
1 19
1 20
2 6
3 10
4 6
5 13
6 11
7 12
8 10
9 10
10 11
11 12
12 13
